400, 31999400
160401, 151
160402, 36
160403, 957
160404, 339
160405, 284
160406, 328
160407, 401
160408, 178
160409, 941
160410, 187
160411, 520
160412, 775
160413, 181
160414, 129
160415, 265
160416, 77
160417, 461
160418, 168
160419, 763
160420, 995
160421, 718
160422, 231
160423, 858
160424, 978
160425, 538
160426, 55
160427, 896
160428, 20
160429, 447
160430, 69
160431, 260
160432, 470
160433, 155
160434, 757
160435, 54
160436, 382
160437, 448
160438, 328
160439, 32
160440, 317
160441, 121
160442, 831
160443, 150
160444, 469
160445, 387
160446, 789
160447, 206
160448, 963
160449, 172
160450, 1
160451, 649
160452, 462
160453, 607
160454, 431
160455, 967
160456, 309
160457, 438
160458, 861
160459, 46
160460, 637
160461, 14
160462, 492
160463, 28
160464, 177
160465, 902
160466, 851
160467, 424
160468, 407
160469, 239
160470, 896
160471, 452
160472, 433
160473, 461
160474, 134
160475, 133
160476, 457
160477, 428
160478, 456
160479, 353
160480, 971
160481, 539
160482, 315
160483, 407
160484, 966
160485, 260
160486, 455
160487, 498
160488, 107
160489, 921
160490, 526
160491, 366
160492, 492
160493, 664
160494, 779
160495, 137
160496, 285
160497, 368
160498, 828
160499, 147
160500, 542
160501, 129
160502, 417
160503, 973
160504, 727
160505, 423
160506, 258
160507, 453
160508, 763
160509, 239
160510, 451
160511, 816
160512, 837
160513, 344
160514, 523
160515, 487
160516, 124
160517, 947
160518, 32
160519, 970
160520, 538
160521, 435
160522, 716
160523, 95
160524, 217
160525, 661
160526, 995
160527, 995
160528, 900
160529, 657
160530, 306
160531, 967
160532, 388
160533, 318
160534, 361
160535, 676
160536, 136
160537, 41
160538, 473
160539, 127
160540, 643
160541, 694
160542, 951
160543, 365
160544, 177
160545, 181
160546, 102
160547, 743
160548, 353
160549, 526
160550, 232
160551, 335
160552, 796
160553, 741
160554, 390
160555, 25
160556, 100
160557, 70
160558, 474
160559, 162
160560, 278
160561, 25
160562, 204
160563, 444
160564, 104
160565, 591
160566, 826
160567, 528
160568, 690
160569, 898
160570, 965
160571, 497
160572, 217
160573, 472
160574, 66
160575, 207
160576, 759
160577, 745
160578, 614
160579, 289
160580, 172
160581, 692
160582, 169
160583, 313
160584, 616
160585, 293
160586, 244
160587, 196
160588, 173
160589, 914
160590, 474
160591, 831
160592, 313
160593, 224
160594, 322
160595, 682
160596, 169
160597, 194
160598, 146
160599, 752
160600, 87
160601, 970
160602, 557
160603, 277
160604, 845
160605, 678
160606, 430
160607, 38
160608, 911
160609, 172
160610, 266
160611, 196
160612, 309
160613, 317
160614, 418
160615, 105
160616, 949
160617, 245
160618, 414
160619, 504
160620, 988
160621, 9
160622, 802
160623, 848
160624, 406
160625, 111
160626, 716
160627, 10
160628, 297
160629, 705
160630, 963
160631, 182
160632, 870
160633, 193
160634, 985
160635, 74
160636, 879
160637, 70
160638, 690
160639, 522
160640, 82
160641, 510
160642, 858
160643, 464
160644, 883
160645, 473
160646, 483
160647, 901
160648, 13
160649, 412
160650, 92
160651, 221
160652, 938
160653, 946
160654, 474
160655, 431
160656, 70
160657, 52
160658, 746
160659, 938
160660, 775
160661, 378
160662, 12
160663, 281
160664, 583
160665, 368
160666, 969
160667, 959
160668, 272
160669, 266
160670, 270
160671, 403
160672, 958
160673, 287
160674, 287
160675, 493
160676, 97
160677, 944
160678, 100
160679, 830
160680, 727
160681, 98
160682, 54
160683, 132
160684, 853
160685, 808
160686, 282
160687, 955
160688, 319
160689, 417
160690, 276
160691, 964
160692, 499
160693, 63
160694, 309
160695, 193
160696, 18
160697, 309
160698, 790
160699, 62
160700, 151
160701, 144
160702, 802
160703, 458
160704, 317
160705, 991
160706, 847
160707, 339
160708, 476
160709, 427
160710, 173
160711, 885
160712, 292
160713, 183
160714, 100
160715, 523
160716, 503
160717, 616
160718, 274
160719, 548
160720, 107
160721, 509
160722, 603
160723, 999
160724, 494
160725, 503
160726, 766
160727, 534
160728, 952
160729, 226
160730, 238
160731, 422
160732, 603
160733, 522
160734, 950
160735, 949
160736, 502
160737, 982
160738, 859
160739, 11
160740, 389
160741, 512
160742, 198
160743, 97
160744, 858
160745, 123
160746, 55
160747, 796
160748, 71
160749, 171
160750, 850
160751, 706
160752, 481
160753, 528
160754, 477
160755, 51
160756, 118
160757, 482
160758, 960
160759, 857
160760, 511
160761, 990
160762, 131
160763, 296
160764, 726
160765, 383
160766, 370
160767, 182
160768, 561
160769, 741
160770, 668
160771, 787
160772, 172
160773, 121
160774, 191
160775, 586
160776, 170
160777, 270
160778, 790
160779, 686
160780, 13
160781, 793
160782, 307
160783, 709
160784, 361
160785, 978
160786, 804
160787, 480
160788, 356
160789, 361
160790, 513
160791, 376
160792, 32
160793, 448
160794, 324
160795, 594
160796, 527
160797, 727
160798, 711
160799, 596
160800, 846
